NAME:  br17
TYPE: ATSP
COMMENT: 17 city problem (Repetto)
DIMENSION:  10
EDGE_WEIGHT_TYPE: EXPLICIT
EDGE_WEIGHT_FORMAT: FULL_MATRIX 
EDGE_WEIGHT_SECTION

9999  64  41  11  53  68  47  44  62  57
78  9999  16  35  90  42  88   6  40  42
29  70  9999  50   6   1  93  48  29  23
76  31   8  9999  44  39  26  23  37  38
15  39  58   4  9999  30  77   6  73  86
29  77  73  97  12  9999  86  90  61  36
52  50  50  41  24  66  9999  30   7  91
83  45   9   9  58  21  88  9999  22  46
91  62  55  10  59  24  37  48  9999  83
36  74  20  96  21  48  99  68  84  9999